NAME : portcgen-16-30
COMMENT : portcgen N=16, seed=30
TYPE : TSP
DIMENSION : 16
EDGE_WEIGHT_TYPE : EUC_2D
NODE_COORD_SECTION
1 298293 312313
2 -473037 -447607
3 114807 -402954
4 -74642 -554470
5 527718 454827
6 359710 -147221
7 -233507 173060
8 220266 39984
9 104849 -41248
10 -1277 -418225
11 -16392 120701
12 -292502 725555
13 -90315 -173760
14 245292 190080
15 -50635 -282175
16 -400737 271321
